(declare-const X String)
; /^From\u{3a}[^\r\n]*SpyBuddy/smi
(assert (str.in_re X (re.++ (str.to_re "/From:") (re.* (re.union (str.to_re "\u{d}") (str.to_re "\u{a}"))) (str.to_re "SpyBuddy/smi\u{a}"))))
(check-sat)
